/* Objective function */
  min: 775x1 + 800x2 + 800x3 + 800x4 + 800x5 + 775x6 + 750x7;

/* Constraints */
  0 x1 + 1x2 + 1x3 + 1x4 + 1x5 + 1x6 + 0x7 >= 18;
0 x1 + 0x2 + 1x3 + 1x4 + 1x5 + 1x6 + 1x7 >= 27;
1 x1 + 0x2 + 0x3 + 1x4 + 1x5 + 1x6 + 1x7 >= 22;
1 x1 + 1x2 + 0x3 + 0x4 + 1x5 + 1x6 + 1x7 >= 26;
1 x1 + 1x2 + 1x3 + 0x4 + 0x5 + 1x6 + 1x7 >= 25;
1 x1 + 1x2 + 1x3 + 1x4 + 0x5 + 0x6 + 1x7 >= 21;
1 x1 + 1x2 + 1x3 + 1x4 + 1x5 + 0x6 + 0x7 >= 19;
x1 > 0;
x2 > 0;
x3 > 0;
x4 > 0;
x5 > 0;  
x6 > 0;
x7 > 0;

int x1, x2, x3, x4, x5, x6, x7;